#######################



#######################
Set parameter TimeLimit to value 500
Set parameter SoftMemLimit to value 125
Set parameter MIPFocus to value 2
Set parameter LogFile to value 1202-MIPFocus2-Presolve2-TimeLimit500-k16x240-2.log
Set parameter Presolve to value 2
Set parameter Seed to value 12
Using license file /opt/gurobi/gurobi.lic

Gurobi Optimizer version 12.0.2 build v12.0.2rc0 (linux64 - "Ubuntu 22.04.4 LTS")
Copyright (c) 2025, Gurobi Optimization, LLC

Read MPS format model from file /miplib2010/k16x240.mps.bz2
Reading time = 0.00 seconds
k16x240: 256 rows, 480 columns, 960 nonzeros

Using Gurobi shared library /nfs/shared/static-builds/gurobi1202

CPU model: Intel(R) Xeon(R) E-2388G CPU @ 3.20GHz, instruction set [SSE2|AVX|AVX2|AVX512]
Thread count: 8 physical cores, 16 logical processors, using up to 16 threads

Non-default parameters:
TimeLimit  500
SoftMemLimit  125
MIPFocus  2
Presolve  2
Seed  12

Optimize a model with 256 rows, 480 columns and 960 nonzeros
Model fingerprint: 0x4e80885f
Variable types: 240 continuous, 240 integer (240 binary)
Coefficient statistics:
  Matrix range     [1e+00, 1e+03]
  Objective range  [1e+00, 1e+03]
  Bounds range     [1e+00, 1e+03]
  RHS range        [4e+00, 4e+02]
Found heuristic solution: objective 19617.000000
Presolve time: 0.00s
Presolved: 256 rows, 480 columns, 960 nonzeros
Variable types: 240 continuous, 240 integer (240 binary)
Root relaxation presolve removed 241 rows and 240 columns
Root relaxation presolved: 15 rows, 240 columns, 450 nonzeros


Root relaxation: objective 2.769838e+03, 16 iterations, 0.00 seconds (0.00 work units)

    Nodes    |    Current Node    |     Objective Bounds      |     Work
 Expl Unexpl |  Obj  Depth IntInf | Incumbent    BestBd   Gap | It/Node Time

     0     0 2769.83800    0   14 19617.0000 2769.83800  85.9%     -    0s
H    0     0                    11359.000000 2769.83800  75.6%     -    0s
H    0     0                    11264.000000 2769.83800  75.4%     -    0s
H    0     0                    11261.000000 8116.87580  27.9%     -    0s
H    0     0                    11240.000000 8116.87580  27.8%     -    0s
H    0     0                    10989.000000 8116.87580  26.1%     -    0s
     0     0 8116.87580    0   26 10989.0000 8116.87580  26.1%     -    0s
H    0     0                    10941.000000 8190.91086  25.1%     -    0s
H    0     0                    10923.000000 8190.91086  25.0%     -    0s
H    0     0                    10919.000000 8190.91086  25.0%     -    0s
H    0     0                    10843.000000 8190.91086  24.5%     -    0s
     0     0 8571.49855    0   28 10843.0000 8571.49855  20.9%     -    0s
     0     0 8595.10166    0   26 10843.0000 8595.10166  20.7%     -    0s
     0     0 8728.37265    0   21 10843.0000 8728.37265  19.5%     -    0s
H    0     0                    10779.000000 8779.92408  18.5%     -    0s
     0     0 8779.92408    0   32 10779.0000 8779.92408  18.5%     -    0s
     0     0 8818.20985    0   38 10779.0000 8818.20985  18.2%     -    0s
     0     0 8819.57434    0   36 10779.0000 8819.57434  18.2%     -    0s
     0     0 8920.27428    0   23 10779.0000 8920.27428  17.2%     -    0s
     0     0 8981.51463    0   36 10779.0000 8981.51463  16.7%     -    0s
     0     0 9014.74397    0   39 10779.0000 9014.74397  16.4%     -    0s
     0     0 9021.23226    0   42 10779.0000 9021.23226  16.3%     -    0s
     0     0 9056.82868    0   35 10779.0000 9056.82868  16.0%     -    0s
     0     0 9059.62717    0   35 10779.0000 9059.62717  16.0%     -    0s
     0     2 9059.67403    0   35 10779.0000 9059.67403  16.0%     -    0s
H   27    63                    10678.000000 9184.10304  14.0%  57.3    0s
H  914   798                    10674.000000 9391.26440  12.0%  18.1    0s
 28857 11020 10390.4705   34    2 10674.0000 9981.69571  6.49%  27.7    5s
 71251 19660     cutoff   31      10674.0000 10160.3844  4.81%  28.6   10s
 110541 20679     cutoff   33      10674.0000 10283.3613  3.66%  29.3   15s
 151321 12744     cutoff   34      10674.0000 10420.9543  2.37%  29.2   20s

Cutting planes:
  Gomory: 1
  Lift-and-project: 13
  Cover: 84
  Implied bound: 18
  Dual implied bound: 24
  MIR: 171
  Mixing: 1
  Flow cover: 315
  Flow path: 48
  Inf proof: 4
  Zero half: 8
  Network: 47
  Relax-and-lift: 2

Explored 175425 nodes (4868718 simplex iterations) in 22.33 seconds (30.72 work units)
Thread count was 16 (of 16 available processors)

Solution count 10: 10674 10678 10779 ... 11261

Optimal solution found (tolerance 1.00e-04)
Best objective 1.067400000000e+04, best bound 1.067400000000e+04, gap 0.0000%
